min: c;

c = 3.24736215992841 * u1_t7_h4 + 3.39361523937722 * u1_t7_h5 + 3.72086091258205 * u1_t5_h6 + 3.72086091258205 * u1_t7_h6 + 3.60027343461571 * u1_t5_h7 + 3.60027343461571 * u1_t7_h7 + 3.60027343461571 * u1_t9_h7 + 5.53635011224041 * u1_t5_h8 + 5.53635011224041 * u1_t7_h8 + 5.53635011224041 * u1_t9_h8 + 5.53635011224041 * u1_t10_h8 + 4.65351191369647 * u1_t5_h9 + 4.65351191369647 * u1_t7_h9 + 4.65351191369647 * u1_t9_h9 + 4.65351191369647 * u1_t10_h9 + 5.82005477994048 * u1_t5_h10 + 5.82005477994048 * u1_t7_h10 + 5.82005477994048 * u1_t9_h10 + 5.82005477994048 * u1_t10_h10 + 3.86920329817874 * u1_t5_h11 + 3.86920329817874 * u1_t9_h11 + 3.86920329817874 * u1_t10_h11 + 6.32451882850277 * u1_t4_h12 + 6.32451882850277 * u1_t5_h12 + 6.32451882850277 * u1_t8_h12 + 6.32451882850277 * u1_t9_h12 + 6.32451882850277 * u1_t10_h12 + 4.7420371412062 * u1_t4_h13 + 4.7420371412062 * u1_t8_h13 + 4.7420371412062 * u1_t9_h13 + 4.7420371412062 * u1_t10_h13 + 5.40238194490625 * u1_t4_h14 + 5.40238194490625 * u1_t8_h14 + 5.40238194490625 * u1_t9_h14 + 5.40238194490625 * u1_t10_h14 + 5.78492925309961 * u1_t4_h15 + 5.78492925309961 * u1_t8_h15 + 6.34096845204416 * u1_t4_h16 + 6.34096845204416 * u1_t8_h16 + 6.64960313543513 * u1_t4_h17 + 6.64960313543513 * u1_t8_h17 + 6.72080835191463 * u1_t2_h18 + 6.72080835191463 * u1_t4_h18 + 6.72080835191463 * u1_t6_h18 + 6.72080835191463 * u1_t8_h18 + 5.39202053311001 * u1_t2_h19 + 5.39202053311001 * u1_t3_h19 + 5.39202053311001 * u1_t4_h19 + 5.39202053311001 * u1_t6_h19 + 5.13029647968886 * u1_t1_h20 + 5.13029647968886 * u1_t2_h20 + 5.13029647968886 * u1_t3_h20 + 5.13029647968886 * u1_t4_h20 + 5.13029647968886 * u1_t6_h20 + 5.53280473024764 * u1_t1_h21 + 5.53280473024764 * u1_t2_h21 + 5.53280473024764 * u1_t3_h21 + 6.02896168236726 * u1_t1_h22 + 6.02896168236726 * u1_t2_h22 + 5.49641827749868 * u1_t1_h23 + 5.49641827749868 * u1_t2_h23;
0 <= u1_t1_h20 <= 1;
0 <= u1_t1_h21 <= 1;
0 <= u1_t1_h22 <= 1;
0 <= u1_t1_h23 <= 1;
u1_t1_h20 + u1_t1_h21 + u1_t1_h22 + u1_t1_h23 = 1;
0 <= u1_t2_h18 <= 1;
0 <= u1_t2_h19 <= 1;
0 <= u1_t2_h20 <= 1;
0 <= u1_t2_h21 <= 1;
0 <= u1_t2_h22 <= 1;
0 <= u1_t2_h23 <= 1;
u1_t2_h18 + u1_t2_h19 + u1_t2_h20 + u1_t2_h21 + u1_t2_h22 + u1_t2_h23 = 2;
0 <= u1_t3_h19 <= 1;
0 <= u1_t3_h20 <= 1;
0 <= u1_t3_h21 <= 1;
u1_t3_h19 + u1_t3_h20 + u1_t3_h21 = 1;
0 <= u1_t4_h12 <= 1;
0 <= u1_t4_h13 <= 1;
0 <= u1_t4_h14 <= 1;
0 <= u1_t4_h15 <= 1;
0 <= u1_t4_h16 <= 1;
0 <= u1_t4_h17 <= 1;
0 <= u1_t4_h18 <= 1;
0 <= u1_t4_h19 <= 1;
0 <= u1_t4_h20 <= 1;
u1_t4_h12 + u1_t4_h13 + u1_t4_h14 + u1_t4_h15 + u1_t4_h16 + u1_t4_h17 + u1_t4_h18 + u1_t4_h19 + u1_t4_h20 = 3;
0 <= u1_t5_h6 <= 1;
0 <= u1_t5_h7 <= 1;
0 <= u1_t5_h8 <= 1;
0 <= u1_t5_h9 <= 1;
0 <= u1_t5_h10 <= 1;
0 <= u1_t5_h11 <= 1;
0 <= u1_t5_h12 <= 1;
u1_t5_h6 + u1_t5_h7 + u1_t5_h8 + u1_t5_h9 + u1_t5_h10 + u1_t5_h11 + u1_t5_h12 = 3;
0 <= u1_t6_h18 <= 1;
0 <= u1_t6_h19 <= 1;
0 <= u1_t6_h20 <= 1;
u1_t6_h18 + u1_t6_h19 + u1_t6_h20 = 2;
0 <= u1_t7_h4 <= 1;
0 <= u1_t7_h5 <= 1;
0 <= u1_t7_h6 <= 1;
0 <= u1_t7_h7 <= 1;
0 <= u1_t7_h8 <= 1;
0 <= u1_t7_h9 <= 1;
0 <= u1_t7_h10 <= 1;
u1_t7_h4 + u1_t7_h5 + u1_t7_h6 + u1_t7_h7 + u1_t7_h8 + u1_t7_h9 + u1_t7_h10 = 2;
0 <= u1_t8_h12 <= 1;
0 <= u1_t8_h13 <= 1;
0 <= u1_t8_h14 <= 1;
0 <= u1_t8_h15 <= 1;
0 <= u1_t8_h16 <= 1;
0 <= u1_t8_h17 <= 1;
0 <= u1_t8_h18 <= 1;
u1_t8_h12 + u1_t8_h13 + u1_t8_h14 + u1_t8_h15 + u1_t8_h16 + u1_t8_h17 + u1_t8_h18 = 2;
0 <= u1_t9_h7 <= 1;
0 <= u1_t9_h8 <= 1;
0 <= u1_t9_h9 <= 1;
0 <= u1_t9_h10 <= 1;
0 <= u1_t9_h11 <= 1;
0 <= u1_t9_h12 <= 1;
0 <= u1_t9_h13 <= 1;
0 <= u1_t9_h14 <= 1;
u1_t9_h7 + u1_t9_h8 + u1_t9_h9 + u1_t9_h10 + u1_t9_h11 + u1_t9_h12 + u1_t9_h13 + u1_t9_h14 = 3;
0 <= u1_t10_h8 <= 1;
0 <= u1_t10_h9 <= 1;
0 <= u1_t10_h10 <= 1;
0 <= u1_t10_h11 <= 1;
0 <= u1_t10_h12 <= 1;
0 <= u1_t10_h13 <= 1;
0 <= u1_t10_h14 <= 1;
u1_t10_h8 + u1_t10_h9 + u1_t10_h10 + u1_t10_h11 + u1_t10_h12 + u1_t10_h13 + u1_t10_h14 = 3;
